c Optimization.jl
c  Problem  1 input parameters
c  ---------------------------
c   Number of nodes:            64
c   Source nodes:               5
c   Sink nodes:                 2
c   Number of arcs:             1024
c   Minimum arc cost:           1.0
c   Maximum arc cost:           107.0
c   Total supply:               161.0
c   Minimum arc capacity:       14.0
c   Maximum arc capacity:       59.0
c
c  *** Minimum cost flow ***
c
p min 64 1024
n 2 48.0
n 3 27.0
n 4 7.0
n 5 52.0
n 6 27.0
n 1 -83.0
n 64 -78.0
a 1 22 0.0 14.0 41.0
a 1 48 0.0 34.0 45.0
a 1 31 0.0 29.0 13.0
a 1 62 0.0 16.0 46.0
a 1 27 0.0 32.0 59.0
a 1 54 0.0 35.0 84.0
a 1 12 0.0 25.0 59.0
a 1 43 0.0 15.0 106.0
a 1 18 0.0 20.0 22.0
a 1 41 0.0 15.0 95.0
a 1 26 0.0 31.0 45.0
a 1 39 0.0 48.0 12.0
a 1 15 0.0 46.0 4.0
a 1 61 0.0 57.0 73.0
a 1 7 0.0 32.0 94.0
a 1 9 0.0 14.0 92.0
a 1 60 0.0 20.0 64.0
a 1 42 0.0 47.0 52.0
a 1 53 0.0 59.0 82.0
a 1 56 0.0 23.0 105.0
a 1 29 0.0 43.0 106.0
a 1 10 0.0 18.0 96.0
a 1 11 0.0 32.0 44.0
a 1 14 0.0 37.0 68.0
a 1 38 0.0 40.0 83.0
a 12 30 0.0 14.0 35.0
a 12 27 0.0 55.0 61.0
a 12 53 0.0 38.0 9.0
a 12 57 0.0 52.0 95.0
a 12 29 0.0 25.0 65.0
a 12 45 0.0 51.0 102.0
a 12 11 0.0 41.0 20.0
a 12 56 0.0 44.0 35.0
a 12 25 0.0 43.0 89.0
a 12 42 0.0 20.0 80.0
a 12 35 0.0 22.0 17.0
a 12 20 0.0 54.0 21.0
a 12 38 0.0 56.0 101.0
a 12 49 0.0 45.0 71.0
a 12 44 0.0 32.0 65.0
a 12 24 0.0 33.0 26.0
a 12 40 0.0 59.0 13.0
a 12 13 0.0 37.0 104.0
a 14 64 0.0 14.0 79.0
a 14 9 0.0 53.0 59.0
a 14 26 0.0 22.0 103.0
a 14 30 0.0 39.0 34.0
a 14 52 0.0 41.0 33.0
a 14 22 0.0 17.0 99.0
a 14 44 0.0 56.0 49.0
a 14 25 0.0 27.0 98.0
a 22 48 0.0 14.0 33.0
a 22 64 0.0 43.0 94.0
a 22 42 0.0 42.0 43.0
a 22 32 0.0 47.0 62.0
a 22 10 0.0 26.0 68.0
a 22 49 0.0 44.0 56.0
a 22 17 0.0 15.0 47.0
a 22 51 0.0 33.0 42.0
a 22 43 0.0 58.0 75.0
a 22 35 0.0 14.0 8.0
a 22 29 0.0 33.0 27.0
a 22 59 0.0 40.0 1.0
a 22 54 0.0 29.0 39.0
a 22 39 0.0 31.0 96.0
a 26 14 0.0 14.0 29.0
a 26 62 0.0 36.0 42.0
a 26 60 0.0 23.0 20.0
a 26 28 0.0 46.0 99.0
a 26 31 0.0 38.0 67.0
a 26 56 0.0 31.0 5.0
a 26 44 0.0 48.0 74.0
a 26 37 0.0 20.0 72.0
a 26 41 0.0 53.0 24.0
a 26 53 0.0 57.0 83.0
a 26 61 0.0 16.0 16.0
a 26 25 0.0 32.0 73.0
a 26 43 0.0 51.0 103.0
a 26 52 0.0 20.0 1.0
a 26 36 0.0 45.0 40.0
a 26 50 0.0 56.0 43.0
a 26 35 0.0 45.0 48.0
a 26 20 0.0 46.0 77.0
a 26 34 0.0 38.0 76.0
a 26 15 0.0 14.0 63.0
a 26 39 0.0 54.0 32.0
a 30 52 0.0 14.0 105.0
a 30 26 0.0 47.0 13.0
a 30 50 0.0 59.0 9.0
a 30 16 0.0 22.0 88.0
a 48 12 0.0 14.0 45.0
a 48 1 0.0 14.0 35.0
a 48 45 0.0 58.0 58.0
a 48 52 0.0 29.0 6.0
a 52 26 0.0 14.0 103.0
a 52 22 0.0 59.0 47.0
a 52 25 0.0 58.0 11.0
a 52 33 0.0 27.0 8.0
a 52 19 0.0 19.0 49.0
a 52 54 0.0 57.0 58.0
a 52 31 0.0 46.0 94.0
a 52 63 0.0 38.0 49.0
a 52 12 0.0 57.0 72.0
a 52 59 0.0 24.0 103.0
a 52 11 0.0 32.0 106.0
a 52 57 0.0 15.0 91.0
a 52 18 0.0 22.0 61.0
a 52 27 0.0 18.0 88.0
a 52 30 0.0 24.0 36.0
a 52 56 0.0 17.0 48.0
a 52 58 0.0 54.0 56.0
a 52 32 0.0 39.0 105.0
a 52 28 0.0 53.0 94.0
a 52 61 0.0 33.0 103.0
a 52 45 0.0 31.0 77.0
a 52 10 0.0 19.0 54.0
a 2 62 0.0 48.0 62.0
a 2 15 0.0 46.0 41.0
a 2 47 0.0 57.0 102.0
a 2 30 0.0 18.0 66.0
a 2 56 0.0 27.0 2.0
a 2 61 0.0 41.0 58.0
a 29 54 0.0 48.0 61.0
a 29 33 0.0 20.0 83.0
a 29 40 0.0 27.0 69.0
a 29 49 0.0 49.0 31.0
a 29 19 0.0 50.0 79.0
a 29 62 0.0 25.0 97.0
a 29 39 0.0 57.0 27.0
a 29 9 0.0 40.0 87.0
a 29 35 0.0 22.0 47.0
a 29 46 0.0 42.0 50.0
a 29 38 0.0 44.0 64.0
a 29 7 0.0 34.0 20.0
a 29 20 0.0 16.0 53.0
a 29 16 0.0 20.0 16.0
a 29 18 0.0 49.0 77.0
a 29 21 0.0 40.0 107.0
a 29 59 0.0 46.0 49.0
a 29 22 0.0 34.0 42.0
a 29 37 0.0 16.0 9.0
a 29 41 0.0 21.0 84.0
a 29 36 0.0 27.0 55.0
a 29 58 0.0 55.0 84.0
a 29 8 0.0 27.0 28.0
a 29 43 0.0 26.0 60.0
a 29 27 0.0 35.0 94.0
a 29 57 0.0 37.0 11.0
a 29 60 0.0 19.0 91.0
a 29 30 0.0 17.0 60.0
a 29 55 0.0 15.0 29.0
a 29 32 0.0 47.0 82.0
a 31 46 0.0 48.0 81.0
a 31 27 0.0 19.0 65.0
a 31 54 0.0 53.0 53.0
a 31 16 0.0 51.0 49.0
a 31 62 0.0 43.0 82.0
a 31 29 0.0 50.0 26.0
a 31 56 0.0 27.0 24.0
a 31 49 0.0 18.0 105.0
a 31 18 0.0 23.0 23.0
a 31 43 0.0 16.0 67.0
a 31 47 0.0 46.0 64.0
a 31 51 0.0 17.0 50.0
a 31 39 0.0 36.0 46.0
a 31 40 0.0 15.0 50.0
a 31 21 0.0 37.0 66.0
a 31 45 0.0 34.0 41.0
a 31 48 0.0 19.0 24.0
a 31 58 0.0 33.0 26.0
a 31 13 0.0 51.0 45.0
a 31 44 0.0 59.0 29.0
a 31 35 0.0 38.0 50.0
a 31 17 0.0 18.0 25.0
a 31 10 0.0 20.0 14.0
a 32 31 0.0 48.0 67.0
a 32 27 0.0 18.0 3.0
a 32 59 0.0 16.0 94.0
a 32 28 0.0 33.0 97.0
a 32 52 0.0 42.0 44.0
a 32 43 0.0 26.0 87.0
a 32 40 0.0 36.0 62.0
a 32 16 0.0 34.0 99.0
a 32 41 0.0 53.0 59.0
a 32 58 0.0 32.0 2.0
a 32 34 0.0 25.0 38.0
a 32 51 0.0 50.0 90.0
a 32 42 0.0 36.0 12.0
a 32 56 0.0 42.0 49.0
a 32 33 0.0 28.0 5.0
a 32 11 0.0 20.0 86.0
a 32 9 0.0 24.0 87.0
a 32 36 0.0 38.0 98.0
a 32 54 0.0 37.0 105.0
a 32 50 0.0 15.0 62.0
a 32 19 0.0 51.0 12.0
a 34 32 0.0 48.0 58.0
a 34 43 0.0 22.0 55.0
a 43 29 0.0 48.0 37.0
a 43 1 0.0 48.0 44.0
a 43 33 0.0 48.0 51.0
a 43 35 0.0 59.0 76.0
a 43 16 0.0 15.0 91.0
a 43 37 0.0 59.0 10.0
a 43 14 0.0 44.0 56.0
a 43 62 0.0 15.0 47.0
a 43 28 0.0 37.0 36.0
a 43 31 0.0 37.0 63.0
a 43 58 0.0 50.0 54.0
a 43 19 0.0 46.0 101.0
a 43 47 0.0 26.0 71.0
a 43 21 0.0 35.0 43.0
a 43 9 0.0 56.0 91.0
a 43 46 0.0 32.0 27.0
a 43 59 0.0 29.0 56.0
a 43 48 0.0 42.0 65.0
a 43 45 0.0 22.0 53.0
a 43 39 0.0 56.0 64.0
a 43 11 0.0 41.0 8.0
a 43 38 0.0 42.0 103.0
a 43 24 0.0 32.0 48.0
a 43 56 0.0 38.0 29.0
a 43 18 0.0 31.0 14.0
a 43 41 0.0 59.0 65.0
a 43 12 0.0 49.0 35.0
a 43 63 0.0 59.0 19.0
a 43 15 0.0 32.0 76.0
a 43 7 0.0 58.0 105.0
a 43 8 0.0 41.0 92.0
a 46 43 0.0 48.0 28.0
a 46 53 0.0 21.0 39.0
a 46 55 0.0 32.0 15.0
a 46 30 0.0 32.0 49.0
a 46 17 0.0 56.0 25.0
a 46 38 0.0 27.0 15.0
a 46 8 0.0 50.0 101.0
a 46 64 0.0 36.0 95.0
a 46 25 0.0 44.0 58.0
a 46 48 0.0 32.0 82.0
a 46 35 0.0 41.0 32.0
a 46 9 0.0 25.0 92.0
a 46 29 0.0 53.0 52.0
a 46 15 0.0 52.0 71.0
a 46 50 0.0 53.0 2.0
a 46 14 0.0 59.0 36.0
a 49 34 0.0 48.0 49.0
a 49 26 0.0 43.0 89.0
a 49 58 0.0 23.0 18.0
a 49 11 0.0 27.0 17.0
a 49 31 0.0 48.0 74.0
a 49 53 0.0 30.0 38.0
a 49 36 0.0 54.0 95.0
a 49 24 0.0 19.0 9.0
a 49 46 0.0 21.0 55.0
a 49 20 0.0 27.0 26.0
a 49 64 0.0 29.0 105.0
a 49 33 0.0 43.0 48.0
a 54 64 0.0 48.0 77.0
a 54 43 0.0 29.0 79.0
a 54 60 0.0 45.0 73.0
a 54 33 0.0 19.0 96.0
a 62 49 0.0 48.0 46.0
a 62 41 0.0 31.0 24.0
a 62 50 0.0 16.0 74.0
a 62 9 0.0 19.0 99.0
a 62 10 0.0 59.0 27.0
a 62 17 0.0 33.0 84.0
a 62 21 0.0 21.0 82.0
a 62 46 0.0 29.0 70.0
a 62 25 0.0 15.0 96.0
a 62 43 0.0 43.0 67.0
a 62 31 0.0 25.0 105.0
a 62 47 0.0 42.0 4.0
a 62 8 0.0 16.0 42.0
a 62 60 0.0 39.0 69.0
a 62 40 0.0 27.0 3.0
a 62 24 0.0 46.0 31.0
a 62 7 0.0 38.0 33.0
a 62 57 0.0 34.0 101.0
a 62 55 0.0 33.0 9.0
a 62 29 0.0 22.0 23.0
a 62 39 0.0 36.0 2.0
a 62 32 0.0 34.0 91.0
a 62 14 0.0 55.0 70.0
a 62 54 0.0 18.0 66.0
a 3 7 0.0 27.0 48.0
a 3 22 0.0 57.0 46.0
a 3 47 0.0 30.0 40.0
a 3 49 0.0 31.0 50.0
a 3 57 0.0 29.0 69.0
a 3 58 0.0 48.0 32.0
a 3 41 0.0 45.0 27.0
a 3 52 0.0 56.0 61.0
a 3 51 0.0 25.0 68.0
a 3 17 0.0 57.0 100.0
a 3 9 0.0 36.0 38.0
a 3 23 0.0 23.0 37.0
a 3 63 0.0 58.0 4.0
a 3 28 0.0 51.0 106.0
a 3 13 0.0 52.0 4.0
a 7 47 0.0 27.0 21.0
a 7 24 0.0 19.0 8.0
a 7 61 0.0 40.0 93.0
a 7 25 0.0 58.0 34.0
a 7 9 0.0 36.0 79.0
a 7 60 0.0 50.0 4.0
a 7 35 0.0 14.0 31.0
a 7 19 0.0 54.0 99.0
a 7 48 0.0 45.0 83.0
a 7 56 0.0 46.0 104.0
a 7 50 0.0 59.0 8.0
a 9 50 0.0 27.0 66.0
a 9 61 0.0 41.0 61.0
a 9 26 0.0 16.0 96.0
a 9 36 0.0 55.0 28.0
a 9 31 0.0 35.0 67.0
a 9 46 0.0 42.0 28.0
a 9 7 0.0 52.0 105.0
a 9 13 0.0 14.0 15.0
a 9 55 0.0 14.0 71.0
a 9 44 0.0 44.0 64.0
a 9 53 0.0 43.0 91.0
a 9 28 0.0 35.0 51.0
a 9 17 0.0 54.0 77.0
a 9 57 0.0 15.0 62.0
a 23 45 0.0 27.0 24.0
a 23 60 0.0 24.0 100.0
a 23 18 0.0 26.0 49.0
a 23 27 0.0 35.0 41.0
a 23 14 0.0 32.0 82.0
a 23 37 0.0 26.0 80.0
a 23 56 0.0 43.0 15.0
a 23 30 0.0 50.0 50.0
a 23 24 0.0 43.0 73.0
a 23 47 0.0 30.0 53.0
a 23 26 0.0 43.0 7.0
a 23 13 0.0 20.0 13.0
a 23 55 0.0 46.0 54.0
a 23 61 0.0 50.0 49.0
a 23 11 0.0 15.0 6.0
a 23 46 0.0 20.0 9.0
a 37 9 0.0 27.0 11.0
a 37 28 0.0 56.0 7.0
a 39 63 0.0 27.0 50.0
a 39 44 0.0 32.0 47.0
a 39 54 0.0 15.0 20.0
a 39 43 0.0 20.0 21.0
a 39 8 0.0 14.0 23.0
a 39 26 0.0 46.0 80.0
a 39 19 0.0 48.0 3.0
a 39 24 0.0 53.0 86.0
a 39 37 0.0 37.0 31.0
a 39 20 0.0 43.0 103.0
a 39 9 0.0 56.0 28.0
a 39 49 0.0 36.0 88.0
a 39 29 0.0 18.0 85.0
a 39 30 0.0 41.0 53.0
a 39 32 0.0 45.0 80.0
a 39 64 0.0 31.0 94.0
a 39 23 0.0 20.0 41.0
a 39 14 0.0 52.0 75.0
a 39 17 0.0 44.0 74.0
a 39 13 0.0 31.0 40.0
a 39 53 0.0 34.0 12.0
a 39 48 0.0 44.0 104.0
a 39 12 0.0 27.0 104.0
a 44 23 0.0 27.0 9.0
a 44 15 0.0 17.0 35.0
a 44 38 0.0 54.0 4.0
a 44 49 0.0 14.0 22.0
a 44 7 0.0 44.0 43.0
a 44 42 0.0 38.0 43.0
a 44 32 0.0 44.0 101.0
a 44 37 0.0 29.0 86.0
a 44 29 0.0 16.0 52.0
a 44 13 0.0 25.0 51.0
a 44 62 0.0 52.0 67.0
a 44 39 0.0 34.0 21.0
a 44 8 0.0 31.0 61.0
a 45 39 0.0 27.0 91.0
a 45 9 0.0 21.0 22.0
a 45 43 0.0 26.0 72.0
a 45 16 0.0 25.0 97.0
a 45 48 0.0 55.0 34.0
a 45 59 0.0 47.0 93.0
a 45 33 0.0 27.0 87.0
a 45 14 0.0 56.0 2.0
a 45 28 0.0 54.0 69.0
a 45 12 0.0 15.0 100.0
a 45 38 0.0 29.0 89.0
a 45 41 0.0 45.0 69.0
a 45 11 0.0 56.0 14.0
a 47 37 0.0 27.0 42.0
a 47 53 0.0 48.0 53.0
a 47 35 0.0 15.0 98.0
a 47 58 0.0 23.0 53.0
a 47 39 0.0 55.0 58.0
a 47 17 0.0 28.0 60.0
a 47 24 0.0 55.0 79.0
a 47 43 0.0 28.0 39.0
a 47 23 0.0 47.0 57.0
a 47 18 0.0 35.0 18.0
a 47 41 0.0 57.0 25.0
a 47 36 0.0 58.0 83.0
a 50 57 0.0 27.0 24.0
a 50 20 0.0 33.0 95.0
a 50 30 0.0 25.0 84.0
a 50 47 0.0 14.0 33.0
a 50 62 0.0 21.0 42.0
a 50 7 0.0 48.0 82.0
a 50 34 0.0 14.0 2.0
a 50 12 0.0 54.0 93.0
a 50 56 0.0 20.0 59.0
a 50 15 0.0 56.0 45.0
a 50 22 0.0 28.0 68.0
a 50 33 0.0 42.0 36.0
a 50 43 0.0 52.0 13.0
a 50 64 0.0 41.0 35.0
a 50 52 0.0 22.0 10.0
a 50 38 0.0 33.0 15.0
a 50 11 0.0 55.0 68.0
a 50 27 0.0 35.0 59.0
a 50 36 0.0 56.0 83.0
a 50 59 0.0 50.0 61.0
a 50 16 0.0 23.0 13.0
a 50 35 0.0 45.0 50.0
a 50 14 0.0 39.0 1.0
a 50 23 0.0 44.0 67.0
a 50 63 0.0 19.0 44.0
a 50 9 0.0 19.0 32.0
a 57 44 0.0 27.0 78.0
a 57 1 0.0 27.0 8.0
a 57 20 0.0 23.0 7.0
a 63 64 0.0 27.0 49.0
a 63 43 0.0 54.0 9.0
a 4 51 0.0 14.0 28.0
a 4 31 0.0 58.0 103.0
a 4 7 0.0 15.0 58.0
a 4 50 0.0 27.0 23.0
a 4 44 0.0 48.0 85.0
a 4 62 0.0 37.0 26.0
a 4 13 0.0 37.0 100.0
a 4 59 0.0 50.0 36.0
a 4 18 0.0 52.0 81.0
a 4 30 0.0 27.0 58.0
a 4 61 0.0 34.0 105.0
a 4 16 0.0 14.0 66.0
a 13 27 0.0 14.0 73.0
a 13 35 0.0 23.0 68.0
a 13 55 0.0 20.0 81.0
a 13 56 0.0 44.0 30.0
a 13 14 0.0 56.0 35.0
a 13 62 0.0 40.0 106.0
a 13 59 0.0 45.0 86.0
a 13 44 0.0 23.0 68.0
a 13 16 0.0 32.0 19.0
a 13 12 0.0 44.0 48.0
a 13 23 0.0 17.0 6.0
a 13 37 0.0 39.0 10.0
a 13 58 0.0 14.0 23.0
a 13 45 0.0 48.0 24.0
a 13 36 0.0 32.0 63.0
a 13 52 0.0 31.0 27.0
a 13 29 0.0 42.0 70.0
a 13 11 0.0 24.0 72.0
a 13 57 0.0 41.0 69.0
a 13 21 0.0 37.0 33.0
a 13 46 0.0 53.0 11.0
a 13 61 0.0 31.0 92.0
a 13 28 0.0 44.0 52.0
a 13 60 0.0 31.0 10.0
a 13 32 0.0 48.0 5.0
a 13 22 0.0 36.0 66.0
a 13 54 0.0 30.0 5.0
a 13 10 0.0 45.0 63.0
a 13 51 0.0 21.0 69.0
a 13 24 0.0 55.0 94.0
a 13 19 0.0 46.0 35.0
a 13 50 0.0 57.0 81.0
a 27 59 0.0 14.0 43.0
a 27 47 0.0 34.0 3.0
a 27 24 0.0 52.0 73.0
a 27 33 0.0 53.0 97.0
a 27 64 0.0 57.0 1.0
a 27 40 0.0 32.0 69.0
a 27 28 0.0 50.0 28.0
a 27 34 0.0 15.0 70.0
a 27 41 0.0 43.0 81.0
a 27 46 0.0 33.0 79.0
a 27 63 0.0 45.0 105.0
a 27 38 0.0 21.0 68.0
a 27 15 0.0 23.0 107.0
a 27 16 0.0 44.0 106.0
a 27 58 0.0 33.0 52.0
a 27 9 0.0 56.0 68.0
a 27 37 0.0 28.0 19.0
a 27 29 0.0 44.0 57.0
a 27 10 0.0 17.0 88.0
a 27 30 0.0 39.0 47.0
a 27 7 0.0 17.0 92.0
a 27 61 0.0 35.0 43.0
a 27 23 0.0 57.0 80.0
a 35 61 0.0 14.0 10.0
a 35 39 0.0 39.0 35.0
a 35 62 0.0 16.0 8.0
a 35 7 0.0 19.0 42.0
a 35 55 0.0 51.0 57.0
a 35 15 0.0 26.0 10.0
a 35 18 0.0 16.0 37.0
a 35 24 0.0 59.0 13.0
a 35 22 0.0 27.0 63.0
a 35 64 0.0 44.0 99.0
a 35 57 0.0 33.0 106.0
a 35 41 0.0 26.0 62.0
a 35 32 0.0 20.0 89.0
a 35 30 0.0 44.0 2.0
a 35 46 0.0 37.0 44.0
a 35 29 0.0 45.0 72.0
a 35 40 0.0 25.0 3.0
a 35 23 0.0 52.0 68.0
a 35 33 0.0 46.0 90.0
a 35 28 0.0 36.0 1.0
a 35 52 0.0 49.0 36.0
a 35 17 0.0 36.0 22.0
a 35 14 0.0 39.0 30.0
a 35 58 0.0 18.0 23.0
a 35 54 0.0 38.0 106.0
a 35 31 0.0 21.0 18.0
a 35 37 0.0 55.0 32.0
a 35 49 0.0 18.0 12.0
a 35 27 0.0 31.0 85.0
a 35 12 0.0 44.0 96.0
a 38 35 0.0 14.0 10.0
a 38 1 0.0 14.0 19.0
a 38 21 0.0 33.0 68.0
a 38 42 0.0 53.0 88.0
a 38 9 0.0 38.0 83.0
a 38 36 0.0 53.0 102.0
a 38 10 0.0 53.0 53.0
a 38 22 0.0 30.0 60.0
a 38 23 0.0 48.0 104.0
a 38 55 0.0 45.0 72.0
a 38 24 0.0 59.0 102.0
a 38 15 0.0 18.0 60.0
a 38 29 0.0 53.0 65.0
a 38 63 0.0 42.0 17.0
a 38 48 0.0 38.0 53.0
a 38 18 0.0 19.0 98.0
a 38 26 0.0 24.0 46.0
a 38 53 0.0 48.0 99.0
a 38 19 0.0 46.0 92.0
a 38 17 0.0 14.0 90.0
a 40 42 0.0 14.0 28.0
a 40 12 0.0 50.0 31.0
a 40 22 0.0 30.0 25.0
a 40 39 0.0 56.0 49.0
a 40 50 0.0 16.0 13.0
a 40 19 0.0 51.0 96.0
a 40 14 0.0 28.0 53.0
a 40 38 0.0 50.0 59.0
a 40 31 0.0 20.0 44.0
a 40 10 0.0 26.0 87.0
a 40 59 0.0 41.0 107.0
a 40 24 0.0 39.0 100.0
a 40 30 0.0 38.0 87.0
a 40 46 0.0 41.0 55.0
a 40 64 0.0 37.0 21.0
a 40 11 0.0 26.0 10.0
a 40 35 0.0 34.0 14.0
a 40 8 0.0 28.0 21.0
a 40 36 0.0 32.0 27.0
a 40 21 0.0 56.0 61.0
a 40 54 0.0 29.0 9.0
a 40 28 0.0 33.0 73.0
a 40 56 0.0 32.0 83.0
a 40 34 0.0 22.0 71.0
a 40 49 0.0 42.0 7.0
a 40 27 0.0 36.0 105.0
a 40 23 0.0 37.0 83.0
a 42 13 0.0 14.0 15.0
a 42 31 0.0 52.0 43.0
a 42 17 0.0 40.0 105.0
a 42 54 0.0 26.0 24.0
a 42 53 0.0 32.0 6.0
a 42 15 0.0 53.0 68.0
a 42 62 0.0 15.0 33.0
a 42 11 0.0 24.0 84.0
a 42 32 0.0 14.0 96.0
a 42 26 0.0 25.0 97.0
a 42 45 0.0 42.0 86.0
a 42 40 0.0 58.0 76.0
a 42 18 0.0 25.0 39.0
a 42 52 0.0 29.0 22.0
a 42 60 0.0 59.0 94.0
a 42 16 0.0 16.0 2.0
a 42 36 0.0 14.0 104.0
a 42 20 0.0 23.0 102.0
a 42 38 0.0 25.0 25.0
a 42 58 0.0 36.0 76.0
a 42 19 0.0 33.0 20.0
a 42 10 0.0 24.0 64.0
a 42 9 0.0 41.0 96.0
a 42 12 0.0 21.0 68.0
a 42 25 0.0 57.0 56.0
a 42 23 0.0 40.0 95.0
a 42 37 0.0 15.0 75.0
a 42 57 0.0 38.0 99.0
a 42 8 0.0 56.0 53.0
a 42 63 0.0 16.0 37.0
a 42 7 0.0 39.0 43.0
a 51 40 0.0 14.0 6.0
a 51 8 0.0 57.0 49.0
a 51 53 0.0 26.0 33.0
a 51 20 0.0 31.0 96.0
a 51 60 0.0 30.0 89.0
a 51 36 0.0 17.0 94.0
a 51 16 0.0 19.0 56.0
a 51 18 0.0 16.0 1.0
a 51 44 0.0 31.0 105.0
a 51 7 0.0 29.0 1.0
a 51 34 0.0 28.0 41.0
a 51 52 0.0 31.0 10.0
a 51 13 0.0 28.0 10.0
a 51 28 0.0 25.0 19.0
a 51 35 0.0 24.0 67.0
a 51 27 0.0 22.0 75.0
a 51 56 0.0 47.0 9.0
a 51 22 0.0 27.0 73.0
a 59 38 0.0 14.0 86.0
a 59 13 0.0 45.0 21.0
a 59 58 0.0 18.0 38.0
a 59 35 0.0 26.0 79.0
a 59 7 0.0 24.0 107.0
a 59 60 0.0 16.0 38.0
a 59 55 0.0 17.0 64.0
a 59 29 0.0 58.0 33.0
a 59 21 0.0 51.0 73.0
a 61 64 0.0 14.0 3.0
a 61 8 0.0 30.0 35.0
a 61 55 0.0 47.0 64.0
a 5 15 0.0 52.0 11.0
a 5 35 0.0 36.0 65.0
a 5 40 0.0 44.0 38.0
a 5 23 0.0 30.0 85.0
a 5 39 0.0 42.0 21.0
a 5 52 0.0 21.0 23.0
a 5 47 0.0 15.0 97.0
a 10 36 0.0 52.0 92.0
a 10 64 0.0 29.0 68.0
a 10 35 0.0 21.0 41.0
a 10 23 0.0 36.0 62.0
a 10 27 0.0 57.0 42.0
a 10 62 0.0 14.0 89.0
a 10 63 0.0 42.0 14.0
a 10 59 0.0 51.0 28.0
a 10 43 0.0 57.0 2.0
a 10 54 0.0 55.0 102.0
a 10 22 0.0 20.0 2.0
a 10 21 0.0 24.0 31.0
a 10 29 0.0 22.0 46.0
a 10 47 0.0 37.0 66.0
a 10 17 0.0 43.0 4.0
a 10 33 0.0 52.0 8.0
a 10 14 0.0 58.0 2.0
a 10 13 0.0 41.0 7.0
a 10 9 0.0 34.0 107.0
a 10 8 0.0 19.0 39.0
a 10 26 0.0 17.0 86.0
a 10 12 0.0 28.0 95.0
a 10 30 0.0 48.0 87.0
a 15 55 0.0 52.0 53.0
a 15 19 0.0 20.0 91.0
a 15 49 0.0 27.0 47.0
a 15 10 0.0 41.0 89.0
a 15 44 0.0 16.0 102.0
a 15 31 0.0 30.0 37.0
a 15 46 0.0 19.0 2.0
a 15 26 0.0 21.0 47.0
a 15 41 0.0 25.0 52.0
a 15 60 0.0 16.0 57.0
a 15 23 0.0 33.0 90.0
a 15 63 0.0 28.0 58.0
a 15 54 0.0 26.0 71.0
a 15 21 0.0 25.0 97.0
a 15 35 0.0 29.0 2.0
a 15 24 0.0 55.0 83.0
a 15 52 0.0 42.0 62.0
a 15 20 0.0 59.0 24.0
a 15 36 0.0 48.0 65.0
a 15 14 0.0 22.0 63.0
a 15 53 0.0 32.0 48.0
a 15 13 0.0 24.0 27.0
a 15 28 0.0 18.0 33.0
a 15 8 0.0 39.0 103.0
a 15 7 0.0 44.0 8.0
a 15 34 0.0 38.0 62.0
a 15 47 0.0 30.0 52.0
a 15 40 0.0 39.0 107.0
a 16 10 0.0 52.0 38.0
a 16 56 0.0 22.0 12.0
a 16 11 0.0 50.0 74.0
a 16 62 0.0 17.0 25.0
a 17 33 0.0 52.0 58.0
a 17 19 0.0 21.0 14.0
a 17 20 0.0 24.0 16.0
a 17 47 0.0 55.0 18.0
a 17 22 0.0 38.0 78.0
a 17 21 0.0 57.0 62.0
a 17 52 0.0 52.0 104.0
a 17 60 0.0 33.0 15.0
a 21 64 0.0 52.0 97.0
a 21 60 0.0 20.0 76.0
a 21 8 0.0 24.0 83.0
a 21 55 0.0 47.0 92.0
a 25 16 0.0 52.0 5.0
a 25 44 0.0 32.0 46.0
a 25 21 0.0 22.0 86.0
a 25 54 0.0 59.0 84.0
a 25 14 0.0 38.0 46.0
a 25 62 0.0 43.0 10.0
a 25 23 0.0 34.0 69.0
a 28 21 0.0 52.0 100.0
a 28 1 0.0 52.0 2.0
a 28 43 0.0 59.0 43.0
a 28 13 0.0 41.0 54.0
a 28 9 0.0 18.0 86.0
a 28 62 0.0 22.0 103.0
a 28 8 0.0 59.0 31.0
a 28 37 0.0 24.0 43.0
a 28 17 0.0 20.0 14.0
a 28 42 0.0 46.0 102.0
a 28 60 0.0 53.0 72.0
a 28 57 0.0 47.0 81.0
a 33 28 0.0 52.0 11.0
a 33 63 0.0 26.0 48.0
a 33 34 0.0 51.0 95.0
a 33 27 0.0 49.0 29.0
a 33 18 0.0 44.0 65.0
a 33 12 0.0 46.0 57.0
a 33 7 0.0 55.0 38.0
a 33 42 0.0 35.0 7.0
a 33 21 0.0 38.0 71.0
a 33 49 0.0 33.0 70.0
a 33 24 0.0 55.0 12.0
a 33 51 0.0 35.0 51.0
a 33 38 0.0 22.0 36.0
a 33 43 0.0 42.0 99.0
a 33 31 0.0 17.0 50.0
a 33 13 0.0 34.0 101.0
a 33 23 0.0 16.0 61.0
a 33 62 0.0 53.0 12.0
a 36 60 0.0 52.0 8.0
a 36 11 0.0 44.0 9.0
a 36 57 0.0 40.0 28.0
a 36 33 0.0 23.0 36.0
a 36 53 0.0 15.0 42.0
a 41 56 0.0 52.0 105.0
a 41 57 0.0 33.0 36.0
a 41 47 0.0 29.0 21.0
a 41 36 0.0 35.0 61.0
a 41 9 0.0 29.0 38.0
a 41 55 0.0 41.0 11.0
a 41 13 0.0 25.0 84.0
a 41 59 0.0 35.0 66.0
a 41 17 0.0 35.0 30.0
a 41 26 0.0 14.0 50.0
a 41 30 0.0 48.0 33.0
a 41 27 0.0 56.0 102.0
a 41 19 0.0 27.0 90.0
a 41 28 0.0 19.0 44.0
a 41 43 0.0 41.0 72.0
a 41 48 0.0 22.0 9.0
a 41 46 0.0 37.0 49.0
a 41 7 0.0 35.0 30.0
a 55 41 0.0 52.0 20.0
a 55 26 0.0 14.0 96.0
a 55 52 0.0 32.0 49.0
a 55 59 0.0 38.0 94.0
a 55 19 0.0 23.0 56.0
a 55 14 0.0 47.0 87.0
a 55 58 0.0 54.0 89.0
a 55 34 0.0 32.0 90.0
a 55 21 0.0 43.0 67.0
a 55 20 0.0 40.0 23.0
a 55 53 0.0 40.0 67.0
a 55 30 0.0 35.0 103.0
a 55 22 0.0 25.0 2.0
a 55 46 0.0 35.0 48.0
a 55 16 0.0 18.0 31.0
a 55 35 0.0 15.0 43.0
a 55 49 0.0 36.0 106.0
a 55 27 0.0 48.0 103.0
a 55 7 0.0 15.0 66.0
a 55 45 0.0 59.0 96.0
a 55 61 0.0 43.0 75.0
a 55 17 0.0 46.0 38.0
a 55 9 0.0 39.0 76.0
a 55 37 0.0 34.0 102.0
a 55 24 0.0 41.0 25.0
a 56 25 0.0 52.0 98.0
a 56 32 0.0 26.0 45.0
a 56 58 0.0 50.0 101.0
a 56 21 0.0 49.0 72.0
a 56 28 0.0 55.0 96.0
a 56 16 0.0 22.0 77.0
a 56 23 0.0 20.0 94.0
a 56 59 0.0 16.0 26.0
a 56 20 0.0 55.0 103.0
a 56 15 0.0 53.0 63.0
a 56 34 0.0 14.0 12.0
a 56 33 0.0 56.0 72.0
a 56 48 0.0 51.0 70.0
a 56 41 0.0 19.0 7.0
a 56 9 0.0 58.0 74.0
a 56 38 0.0 21.0 19.0
a 56 64 0.0 14.0 30.0
a 56 39 0.0 42.0 27.0
a 56 12 0.0 16.0 62.0
a 56 61 0.0 40.0 85.0
a 56 31 0.0 51.0 85.0
a 56 54 0.0 26.0 10.0
a 56 53 0.0 42.0 78.0
a 56 63 0.0 55.0 12.0
a 56 47 0.0 39.0 33.0
a 56 57 0.0 48.0 74.0
a 56 46 0.0 26.0 100.0
a 56 10 0.0 39.0 37.0
a 56 17 0.0 50.0 10.0
a 56 45 0.0 41.0 34.0
a 56 55 0.0 16.0 73.0
a 56 22 0.0 19.0 85.0
a 56 8 0.0 56.0 102.0
a 56 26 0.0 57.0 27.0
a 60 17 0.0 52.0 94.0
a 60 7 0.0 47.0 56.0
a 60 39 0.0 21.0 43.0
a 60 40 0.0 38.0 23.0
a 60 61 0.0 22.0 57.0
a 60 53 0.0 47.0 85.0
a 60 18 0.0 50.0 78.0
a 60 50 0.0 51.0 85.0
a 60 15 0.0 59.0 51.0
a 60 11 0.0 55.0 89.0
a 60 43 0.0 26.0 95.0
a 60 32 0.0 41.0 33.0
a 60 13 0.0 32.0 17.0
a 60 16 0.0 46.0 99.0
a 60 8 0.0 14.0 106.0
a 60 54 0.0 26.0 105.0
a 60 24 0.0 48.0 5.0
a 60 37 0.0 48.0 27.0
a 60 45 0.0 30.0 14.0
a 60 34 0.0 15.0 80.0
a 60 12 0.0 49.0 67.0
a 60 58 0.0 19.0 44.0
a 60 59 0.0 32.0 100.0
a 60 57 0.0 47.0 75.0
a 60 31 0.0 43.0 93.0
a 60 46 0.0 29.0 63.0
a 60 33 0.0 29.0 18.0
a 60 28 0.0 17.0 17.0
a 60 26 0.0 59.0 107.0
a 60 21 0.0 34.0 65.0
a 60 14 0.0 16.0 20.0
a 60 47 0.0 33.0 6.0
a 60 42 0.0 53.0 63.0
a 60 51 0.0 23.0 20.0
a 60 22 0.0 48.0 13.0
a 6 19 0.0 27.0 44.0
a 6 34 0.0 55.0 58.0
a 6 31 0.0 35.0 105.0
a 6 13 0.0 36.0 73.0
a 6 24 0.0 41.0 16.0
a 6 48 0.0 50.0 88.0
a 6 40 0.0 31.0 98.0
a 6 14 0.0 17.0 43.0
a 8 24 0.0 27.0 13.0
a 8 49 0.0 43.0 23.0
a 8 54 0.0 58.0 56.0
a 8 46 0.0 34.0 44.0
a 8 21 0.0 14.0 57.0
a 8 26 0.0 53.0 69.0
a 8 27 0.0 54.0 87.0
a 8 52 0.0 14.0 13.0
a 8 42 0.0 18.0 66.0
a 8 28 0.0 23.0 12.0
a 8 13 0.0 31.0 29.0
a 8 25 0.0 17.0 107.0
a 8 33 0.0 25.0 13.0
a 8 59 0.0 15.0 27.0
a 8 55 0.0 23.0 47.0
a 8 10 0.0 17.0 15.0
a 8 12 0.0 56.0 47.0
a 8 48 0.0 53.0 5.0
a 8 37 0.0 15.0 89.0
a 8 23 0.0 23.0 32.0
a 8 20 0.0 29.0 70.0
a 8 17 0.0 29.0 64.0
a 8 50 0.0 37.0 62.0
a 8 62 0.0 58.0 48.0
a 8 31 0.0 27.0 7.0
a 8 16 0.0 28.0 30.0
a 8 40 0.0 19.0 11.0
a 8 14 0.0 35.0 28.0
a 8 15 0.0 16.0 54.0
a 8 64 0.0 49.0 7.0
a 8 41 0.0 28.0 55.0
a 11 18 0.0 27.0 6.0
a 11 57 0.0 42.0 51.0
a 11 47 0.0 49.0 75.0
a 11 43 0.0 49.0 17.0
a 18 64 0.0 27.0 1.0
a 18 51 0.0 54.0 49.0
a 18 16 0.0 46.0 8.0
a 19 8 0.0 27.0 58.0
a 19 28 0.0 19.0 50.0
a 19 29 0.0 59.0 65.0
a 19 41 0.0 55.0 59.0
a 19 12 0.0 54.0 69.0
a 19 50 0.0 15.0 87.0
a 19 44 0.0 29.0 29.0
a 19 21 0.0 58.0 3.0
a 19 25 0.0 16.0 62.0
a 19 48 0.0 56.0 31.0
a 19 56 0.0 30.0 19.0
a 19 47 0.0 53.0 55.0
a 19 49 0.0 54.0 41.0
a 19 38 0.0 15.0 66.0
a 19 45 0.0 47.0 13.0
a 19 17 0.0 29.0 90.0
a 19 60 0.0 18.0 76.0
a 19 9 0.0 38.0 55.0
a 19 16 0.0 27.0 33.0
a 19 15 0.0 53.0 70.0
a 19 32 0.0 15.0 107.0
a 19 39 0.0 29.0 77.0
a 19 46 0.0 50.0 7.0
a 19 11 0.0 42.0 85.0
a 19 63 0.0 29.0 35.0
a 19 33 0.0 35.0 90.0
a 19 34 0.0 43.0 35.0
a 19 61 0.0 31.0 76.0
a 19 24 0.0 29.0 31.0
a 19 10 0.0 18.0 23.0
a 19 59 0.0 40.0 1.0
a 19 31 0.0 43.0 87.0
a 19 58 0.0 25.0 35.0
a 19 55 0.0 47.0 68.0
a 19 43 0.0 48.0 83.0
a 19 53 0.0 24.0 36.0
a 19 14 0.0 43.0 20.0
a 19 35 0.0 51.0 44.0
a 20 11 0.0 27.0 26.0
a 20 23 0.0 39.0 79.0
a 20 35 0.0 14.0 3.0
a 20 45 0.0 32.0 98.0
a 20 53 0.0 38.0 107.0
a 20 30 0.0 49.0 107.0
a 20 46 0.0 17.0 17.0
a 20 18 0.0 29.0 101.0
a 24 58 0.0 27.0 65.0
a 24 48 0.0 49.0 96.0
a 24 35 0.0 22.0 59.0
a 24 42 0.0 16.0 36.0
a 24 34 0.0 22.0 59.0
a 24 63 0.0 40.0 27.0
a 24 23 0.0 21.0 103.0
a 24 61 0.0 40.0 27.0
a 24 7 0.0 27.0 72.0
a 24 29 0.0 50.0 46.0
a 24 9 0.0 59.0 28.0
a 24 57 0.0 45.0 104.0
a 24 56 0.0 30.0 27.0
a 24 49 0.0 17.0 73.0
a 24 15 0.0 35.0 75.0
a 24 52 0.0 50.0 99.0
a 24 8 0.0 19.0 19.0
a 24 39 0.0 55.0 62.0
a 24 25 0.0 54.0 79.0
a 24 11 0.0 40.0 19.0
a 24 32 0.0 25.0 83.0
a 24 10 0.0 57.0 93.0
a 24 28 0.0 58.0 60.0
a 24 38 0.0 59.0 25.0
a 24 18 0.0 31.0 96.0
a 24 44 0.0 35.0 51.0
a 24 55 0.0 31.0 51.0
a 53 20 0.0 27.0 29.0
a 53 1 0.0 27.0 10.0
a 53 19 0.0 32.0 93.0
a 53 42 0.0 16.0 8.0
a 53 61 0.0 29.0 1.0
a 53 56 0.0 56.0 8.0
a 53 59 0.0 29.0 83.0
a 53 31 0.0 57.0 10.0
a 53 27 0.0 43.0 28.0
a 53 51 0.0 33.0 30.0
a 53 38 0.0 37.0 99.0
a 53 58 0.0 59.0 91.0
a 53 29 0.0 49.0 49.0
a 53 28 0.0 33.0 92.0
a 53 13 0.0 47.0 23.0
a 53 44 0.0 23.0 104.0
a 53 34 0.0 45.0 72.0
a 53 55 0.0 54.0 21.0
a 53 35 0.0 39.0 44.0
a 58 53 0.0 27.0 56.0
a 58 17 0.0 20.0 33.0
a 58 15 0.0 16.0 3.0
a 58 37 0.0 25.0 74.0
a 58 48 0.0 58.0 98.0
a 58 44 0.0 57.0 35.0
a 58 50 0.0 15.0 83.0
a 58 62 0.0 29.0 26.0
a 58 29 0.0 52.0 81.0
a 58 28 0.0 27.0 89.0
a 58 16 0.0 43.0 22.0
a 58 41 0.0 33.0 58.0
a 58 26 0.0 57.0 19.0
a 58 33 0.0 32.0 78.0
a 58 11 0.0 52.0 60.0
a 58 51 0.0 55.0 3.0
a 58 55 0.0 24.0 82.0
a 58 22 0.0 51.0 30.0
